% clingo version 5.6.2
% Reading from room_s10_a30_w5.lp ...
% Solving...
UNKNOWN
% 
% INTERRUPTED    : 1
% Models         : 0+
% Calls          : 1
% Time           : 35.700s (Solving: 4.46s 1st Model: 0.00s Unsat: 0.00s)
% CPU Time       : 35.406s
